(set-info :smt-lib-version 2.6)
(set-logic QF_NIA)
(set-info :source  | 
Generated by: Johannes Bauer
Generated on: 2026-06-18
Generator: mgm A12 Test Data Generator
Application: ELSTER
Target solver: Z3, Yices2, CVC5
Script is based on the ELSTER form: capital gains tax registration (A / KapEStInvStG)
Characteristic of the form: easy.
In this script, all terms of the form (* x1 x2 x3 ...) are in the form (* x1 c2 c3 ...),
all terms of the form (div x y) are in the form (div x c) and the symbol mod is exclusively used in the form (mod x c),
where x, y, and x1, x2, x3 ... are free constants and c, c2, c3 ... are terms in the form n or (-n) for some numeral n.
The script starts with the base constraints, which define a valid data set for the corresponding form. After the first (push 1), control constraints follow.
The goal of the control constraints in this script is to fill up a data set with values, after the characteristics of the high test coverage were placed.
number variables: 203, number constraints: 205
"https://www.elster.de/eportal/start?locale=en_US"
"https://www.mgm-tp.com/q12-tdg.html"
"https://a12.ai/public-sector"
|)
(set-info :license "https://creativecommons.org/licenses/by/4.0/")
(set-info :category "industrial")
(declare-fun I1-i () Int)
(declare-fun I2-N () Int)
(declare-fun B3-F () Bool)
(declare-fun I3-i () Int)
(declare-fun B4-F () Bool)
(declare-fun B5-F () Bool)
(declare-fun B6-F () Bool)
(declare-fun B7-F () Bool)
(declare-fun I7-y () Int)
(declare-fun B8-F () Bool)
(declare-fun I8-N () Int)
(declare-fun B9-F () Bool)
(declare-fun B10-F () Bool)
(declare-fun B11-F () Bool)
(declare-fun I11-N () Int)
(declare-fun B12-F () Bool)
(declare-fun I12-y () Int)
(declare-fun I12-m () Int)
(declare-fun I12-d () Int)
(declare-fun B13-F () Bool)
(declare-fun I13-y () Int)
(declare-fun I13-m () Int)
(declare-fun I13-d () Int)
(declare-fun B14-F () Bool)
(declare-fun B15-F () Bool)
(declare-fun B16-F () Bool)
(declare-fun I16 () Int)
(declare-fun B17-F () Bool)
(declare-fun B18-F () Bool)
(declare-fun I18 () Int)
(declare-fun B19-F () Bool)
(declare-fun B20-F () Bool)
(declare-fun B21-F () Bool)
(declare-fun I21 () Int)
(declare-fun B22-F () Bool)
(declare-fun I22 () Int)
(declare-fun B23-F () Bool)
(declare-fun B24-F () Bool)
(declare-fun B25-F () Bool)
(declare-fun B26-F () Bool)
(declare-fun B27-F () Bool)
(declare-fun B28-F () Bool)
(declare-fun I28 () Int)
(declare-fun I29-s-y () Int)
(declare-fun I29-s-m () Int)
(declare-fun I29-s-d () Int)
(declare-fun I29-e-y () Int)
(declare-fun I29-e-m () Int)
(declare-fun I29-e-d () Int)
(declare-fun I30-y () Int)
(declare-fun I30-m () Int)
(declare-fun I30-d () Int)
(declare-fun I31-y () Int)
(declare-fun I31-m () Int)
(declare-fun I31-d () Int)
(declare-fun B32-F () Bool)
(declare-fun B33-F () Bool)
(declare-fun B34-F () Bool)
(declare-fun I34 () Int)
(declare-fun B35-F () Bool)
(declare-fun I35 () Int)
(declare-fun B36-F () Bool)
(declare-fun I36 () Int)
(declare-fun I37 () Int)
(declare-fun I38 () Int)
(declare-fun B39-F () Bool)
(declare-fun B40-F () Bool)
(declare-fun B41-F () Bool)
(declare-fun I41 () Int)
(declare-fun B42-F () Bool)
(declare-fun B43-F () Bool)
(declare-fun I44-s-y () Int)
(declare-fun I44-s-m () Int)
(declare-fun I44-s-d () Int)
(declare-fun I44-e-y () Int)
(declare-fun I44-e-m () Int)
(declare-fun I44-e-d () Int)
(declare-fun I45-y () Int)
(declare-fun I45-m () Int)
(declare-fun I45-d () Int)
(declare-fun I46-y () Int)
(declare-fun I46-m () Int)
(declare-fun I46-d () Int)
(declare-fun I47 () Int)
(declare-fun I48 () Int)
(declare-fun B49-F () Bool)
(declare-fun B50-F () Bool)
(declare-fun B51-F () Bool)
(declare-fun I51 () Int)
(declare-fun B52-F () Bool)
(declare-fun I52 () Int)
(declare-fun B53-F () Bool)
(declare-fun B54-F () Bool)
(declare-fun B55-F () Bool)
(declare-fun I55 () Int)
(declare-fun B56-F () Bool)
(declare-fun I56 () Int)
(declare-fun I57-N () Int)
(declare-fun I58-y () Int)
(declare-fun I58-m () Int)
(declare-fun I58-d () Int)
(declare-fun B59-F () Bool)
(declare-fun I59-y () Int)
(declare-fun I59-m () Int)
(declare-fun I59-d () Int)
(declare-fun B60-F () Bool)
(declare-fun I60-y () Int)
(declare-fun I60-m () Int)
(declare-fun I60-d () Int)
(declare-fun I61 () Int)
(declare-fun I62 () Int)
(declare-fun I63 () Int)
(declare-fun B64-F () Bool)
(declare-fun B65-F () Bool)
(declare-fun B66-F () Bool)
(declare-fun I66 () Int)
(declare-fun B67-F () Bool)
(declare-fun I67 () Int)
(declare-fun B68-F () Bool)
(declare-fun I68 () Int)
(declare-fun B69-F () Bool)
(declare-fun B70-F () Bool)
(declare-fun B71-F () Bool)
(declare-fun I71 () Int)
(declare-fun B72-F () Bool)
(declare-fun I72 () Int)
(declare-fun B73-F () Bool)
(declare-fun I73 () Int)
(declare-fun I74-y () Int)
(declare-fun I74-m () Int)
(declare-fun I74-d () Int)
(declare-fun B75-F () Bool)
(declare-fun B76-F () Bool)
(declare-fun B77-F () Bool)
(declare-fun I77 () Int)
(declare-fun B78-F () Bool)
(declare-fun I78 () Int)
(declare-fun B79-F () Bool)
(declare-fun I79 () Int)
(declare-fun B80-F () Bool)
(declare-fun B81-F () Bool)
(declare-fun B82-F () Bool)
(declare-fun B83-F () Bool)
(declare-fun I83 () Int)
(declare-fun B84-F () Bool)
(declare-fun I84 () Int)
(declare-fun I85 () Int)
(declare-fun I86 () Int)
(declare-fun B87-F () Bool)
(declare-fun B88-F () Bool)
(declare-fun I88 () Int)
(declare-fun B89-F () Bool)
(declare-fun I89 () Int)
(declare-fun B90-F () Bool)
(declare-fun B91-F () Bool)
(declare-fun I92 () Int)
(declare-fun I93 () Int)
(declare-fun B94-F () Bool)
(declare-fun I94-y () Int)
(declare-fun I94-m () Int)
(declare-fun I94-d () Int)
(declare-fun B95-F () Bool)
(declare-fun B96-F () Bool)
(declare-fun I96 () Int)
(declare-fun B97-F () Bool)
(declare-fun I97 () Int)
(declare-fun B98-F () Bool)
(declare-fun I98 () Int)
(declare-fun B99-F () Bool)
(declare-fun I99 () Int)
(declare-fun B100-F () Bool)
(declare-fun I100 () Int)
(declare-fun B101-F () Bool)
(declare-fun I101 () Int)
(declare-fun B102-F () Bool)
(declare-fun B103-F () Bool)
(declare-fun B104-F () Bool)
(declare-fun I104 () Int)
(declare-fun B105-F () Bool)
(declare-fun I105 () Int)
(declare-fun B106-F () Bool)
(declare-fun I106 () Int)
(declare-fun B107-F () Bool)
(declare-fun I107 () Int)
(declare-fun B108-F () Bool)
(declare-fun I108 () Int)
(declare-fun B109-F () Bool)
(declare-fun I109 () Int)
(declare-fun B110-F () Bool)
(declare-fun I110 () Int)
(declare-fun B111-F () Bool)
(declare-fun I111 () Int)
(declare-fun B112-F () Bool)
(declare-fun I112 () Int)
(declare-fun B113-F () Bool)
(declare-fun I113 () Int)
(declare-fun I114 () Int)
(declare-fun B115-F () Bool)
(declare-fun B116-F () Bool)
(declare-fun B117-F () Bool)
(declare-fun B118-F () Bool)
(declare-fun B119-F () Bool)
(declare-fun B120-F () Bool)
(assert (not (or B94-F B95-F)))
(assert (= B95-F (or B96-F B97-F)))
(assert (= B115-F (or B116-F B117-F)))
(assert B91-F)
(assert (= B10-F (or B11-F B12-F B13-F B14-F B19-F B24-F)))
(assert (= B14-F (or B15-F B16-F B17-F B18-F)))
(assert (= B19-F (or B20-F B21-F B22-F B23-F)))
(assert (= B24-F (or B25-F B26-F B27-F B28-F)))
(assert (= B64-F (or B65-F B66-F B67-F B68-F)))
(assert (= B69-F (or B70-F B71-F B72-F B73-F)))
(assert (= B75-F (or B76-F B77-F B78-F B79-F)))
(assert (= B80-F (or B81-F B82-F B83-F B84-F)))
(assert (= B87-F (or B88-F B89-F B90-F)))
(assert (= B32-F (or B33-F B34-F B35-F B36-F)))
(assert (= B39-F (or B40-F B41-F B42-F B43-F)))
(assert (or B49-F B50-F B51-F B52-F))
(assert (or B53-F B54-F B55-F B56-F))
(assert (ite B96-F (and (<= I96 999999999999) (>= I96 0)) (= I96 0)))
(assert (ite B97-F (and (<= I97 999999999999) (>= I97 0)) (= I97 0)))
(assert (and (<= I92 999999999999) (>= I92 (- 999999999999))))
(assert (and (<= I93 99999999999999) (>= I93 (- 99999999999999))))
(assert (ite B16-F (and (<= I16 999999999999) (>= I16 (- 999999999999))) (= I16 0)))
(assert (ite B17-F true false))
(assert (ite B18-F (and (<= I18 99999999999999) (>= I18 (- 99999999999999))) (= I18 0)))
(assert (ite B21-F (and (<= I21 999999999999) (>= I21 (- 999999999999))) (= I21 0)))
(assert (ite B22-F (and (<= I22 999999999999) (>= I22 (- 999999999999))) (= I22 0)))
(assert (ite B23-F true false))
(assert (ite B26-F true false))
(assert (ite B27-F true false))
(assert (ite B28-F (and (<= I28 99999999999999) (>= I28 (- 99999999999999))) (= I28 0)))
(assert (and (<= I61 999999999999) (>= I61 (- 999999999999))))
(assert (and (<= I62 999999999999) (>= I62 (- 999999999999))))
(assert (and (<= I63 99999999999999) (>= I63 (- 99999999999999))))
(assert (ite B66-F (and (<= I66 999999999999) (>= I66 (- 999999999999))) (= I66 0)))
(assert (ite B67-F (and (<= I67 999999999999) (>= I67 (- 999999999999))) (= I67 0)))
(assert (ite B68-F (and (<= I68 99999999999999) (>= I68 (- 99999999999999))) (= I68 0)))
(assert (ite B71-F (and (<= I71 999999999999) (>= I71 (- 999999999999))) (= I71 0)))
(assert (ite B72-F (and (<= I72 999999999999) (>= I72 (- 999999999999))) (= I72 0)))
(assert (ite B73-F (and (<= I73 99999999999999) (>= I73 (- 99999999999999))) (= I73 0)))
(assert (ite B77-F (and (<= I77 999999999999) (>= I77 0)) (= I77 0)))
(assert (ite B78-F (and (<= I78 999999999999) (>= I78 0)) (= I78 0)))
(assert (ite B79-F (and (<= I79 99999999999999) (>= I79 0)) (= I79 0)))
(assert (ite B82-F true false))
(assert (ite B83-F (and (<= I83 999999999999) (>= I83 0)) (= I83 0)))
(assert (ite B84-F (and (<= I84 99999999999999) (>= I84 0)) (= I84 0)))
(assert (and (<= I85 999999999999) (>= I85 0)))
(assert (and (<= I86 99999999999999) (>= I86 0)))
(assert (ite B88-F (and (<= I88 999999999999) (>= I88 (- 999999999999))) (= I88 0)))
(assert (ite B89-F (and (<= I89 999999999999) (>= I89 (- 999999999999))) (= I89 0)))
(assert (ite B90-F true false))
(assert (ite B34-F (and (<= I34 999999999999) (>= I34 (- 999999999999))) (= I34 0)))
(assert (ite B35-F (and (<= I35 999999999999) (>= I35 (- 999999999999))) (= I35 0)))
(assert (ite B36-F (and (<= I36 99999999999999) (>= I36 (- 99999999999999))) (= I36 0)))
(assert (and (<= I37 999999999999) (>= I37 (- 999999999999))))
(assert (and (<= I38 99999999999999) (>= I38 (- 99999999999999))))
(assert (ite B41-F (and (<= I41 999999999999) (>= I41 (- 999999999999))) (= I41 0)))
(assert (ite B42-F true false))
(assert (ite B43-F true false))
(assert (and (<= I47 999999999999) (>= I47 (- 999999999999))))
(assert (and (<= I48 99999999999999) (>= I48 (- 99999999999999))))
(assert (ite B50-F true false))
(assert (ite B51-F (and (<= I51 999999999999) (>= I51 (- 999999999999))) (= I51 0)))
(assert (ite B52-F (and (<= I52 99999999999999) (>= I52 (- 99999999999999))) (= I52 0)))
(assert (ite B54-F true false))
(assert (ite B55-F (and (<= I55 999999999999) (>= I55 (- 999999999999))) (= I55 0)))
(assert (ite B56-F (and (<= I56 99999999999999) (>= I56 (- 99999999999999))) (= I56 0)))
(assert (ite B101-F (and (<= I101 99999999999999) (>= I101 (- 9999999999999))) (= I101 0)))
(assert (ite B100-F (and (<= I100 99999999999999) (>= I100 (- 9999999999999))) (= I100 0)))
(assert (ite B98-F (and (<= I98 99999999999999) (>= I98 (- 9999999999999))) (= I98 0)))
(assert (ite B99-F (and (<= I99 99999999999999) (>= I99 (- 9999999999999))) (= I99 0)))
(assert (ite B103-F true false))
(assert (ite B102-F true false))
(assert (ite B104-F (and (<= I104 99999999999999) (>= I104 (- 9999999999999))) (= I104 0)))
(assert (ite B105-F (and (<= I105 99999999999999) (>= I105 (- 9999999999999))) (= I105 0)))
(assert (ite B106-F (and (<= I106 99999999999999) (>= I106 (- 9999999999999))) (= I106 0)))
(assert (ite B107-F (and (<= I107 99999999999999) (>= I107 (- 9999999999999))) (= I107 0)))
(assert (ite B111-F (and (<= I111 99999999999999) (>= I111 (- 9999999999999))) (= I111 0)))
(assert (ite B108-F (and (<= I108 99999999999999) (>= I108 (- 9999999999999))) (= I108 0)))
(assert (ite B109-F (and (<= I109 99999999999999) (>= I109 (- 9999999999999))) (= I109 0)))
(assert (ite B110-F (and (<= I110 99999999999999) (>= I110 (- 9999999999999))) (= I110 0)))
(assert (ite B112-F (and (<= I112 99999999999999) (>= I112 (- 9999999999999))) (= I112 0)))
(assert (ite B113-F (and (<= I113 99999999999999) (>= I113 (- 9999999999999))) (= I113 0)))
(assert (and (<= I114 99999999999999) (>= I114 (- 9999999999999))))
(assert (and (ite B94-F (and (> I94-y 1900) (< I94-y 2100)) (= I94-y 0)) (ite B94-F (and (> I94-m 0) (<= I94-m 12)) (= I94-m 0)) (ite B94-F (and (> I94-d 0) (<= I94-d (ite (or (= I94-m 0) (= I94-m 1) (= I94-m 3) (= I94-m 5) (= I94-m 7) (= I94-m 8) (= I94-m 10) (= I94-m 12)) 31 (ite (or (= I94-m 4) (= I94-m 6) (= I94-m 9) (= I94-m 11)) 30 (ite (= (mod I94-y 4) 0) 29 28))))) (= I94-d 0))))
(assert (ite B7-F (and (> I7-y 1900) (< I7-y 2100)) (= I7-y 0)))
(assert (and (ite B13-F (and (> I13-y 1900) (< I13-y 2100)) (= I13-y 0)) (ite B13-F (and (> I13-m 0) (<= I13-m 12)) (= I13-m 0)) (ite B13-F (and (> I13-d 0) (<= I13-d (ite (or (= I13-m 0) (= I13-m 1) (= I13-m 3) (= I13-m 5) (= I13-m 7) (= I13-m 8) (= I13-m 10) (= I13-m 12)) 31 (ite (or (= I13-m 4) (= I13-m 6) (= I13-m 9) (= I13-m 11)) 30 (ite (= (mod I13-y 4) 0) 29 28))))) (= I13-d 0))))
(assert (and (ite B12-F (and (> I12-y 1900) (< I12-y 2100)) (= I12-y 0)) (ite B12-F (and (> I12-m 0) (<= I12-m 12)) (= I12-m 0)) (ite B12-F (and (> I12-d 0) (<= I12-d (ite (or (= I12-m 0) (= I12-m 1) (= I12-m 3) (= I12-m 5) (= I12-m 7) (= I12-m 8) (= I12-m 10) (= I12-m 12)) 31 (ite (or (= I12-m 4) (= I12-m 6) (= I12-m 9) (= I12-m 11)) 30 (ite (= (mod I12-y 4) 0) 29 28))))) (= I12-d 0))))
(assert (and (ite B59-F (and (> I59-y 1900) (< I59-y 2100)) (= I59-y 0)) (ite B59-F (and (> I59-m 0) (<= I59-m 12)) (= I59-m 0)) (ite B59-F (and (> I59-d 0) (<= I59-d (ite (or (= I59-m 0) (= I59-m 1) (= I59-m 3) (= I59-m 5) (= I59-m 7) (= I59-m 8) (= I59-m 10) (= I59-m 12)) 31 (ite (or (= I59-m 4) (= I59-m 6) (= I59-m 9) (= I59-m 11)) 30 (ite (= (mod I59-y 4) 0) 29 28))))) (= I59-d 0))))
(assert (and (> I58-y 1900) (< I58-y 2100) (> I58-m 0) (<= I58-m 12) (> I58-d 0) (<= I58-d (ite (or (= I58-m 0) (= I58-m 1) (= I58-m 3) (= I58-m 5) (= I58-m 7) (= I58-m 8) (= I58-m 10) (= I58-m 12)) 31 (ite (or (= I58-m 4) (= I58-m 6) (= I58-m 9) (= I58-m 11)) 30 (ite (= (mod I58-y 4) 0) 29 28))))))
(assert (and (ite B60-F (and (> I60-y 1900) (< I60-y 2100)) (= I60-y 0)) (ite B60-F (and (> I60-m 0) (<= I60-m 12)) (= I60-m 0)) (ite B60-F (and (> I60-d 0) (<= I60-d (ite (or (= I60-m 0) (= I60-m 1) (= I60-m 3) (= I60-m 5) (= I60-m 7) (= I60-m 8) (= I60-m 10) (= I60-m 12)) 31 (ite (or (= I60-m 4) (= I60-m 6) (= I60-m 9) (= I60-m 11)) 30 (ite (= (mod I60-y 4) 0) 29 28))))) (= I60-d 0))))
(assert (and (> I74-y 1900) (< I74-y 2100) (> I74-m 0) (<= I74-m 12) (> I74-d 0) (<= I74-d (ite (or (= I74-m 0) (= I74-m 1) (= I74-m 3) (= I74-m 5) (= I74-m 7) (= I74-m 8) (= I74-m 10) (= I74-m 12)) 31 (ite (or (= I74-m 4) (= I74-m 6) (= I74-m 9) (= I74-m 11)) 30 (ite (= (mod I74-y 4) 0) 29 28))))))
(assert (and (> I31-y 1900) (< I31-y 2100) (> I31-m 0) (<= I31-m 12) (> I31-d 0) (<= I31-d (ite (or (= I31-m 0) (= I31-m 1) (= I31-m 3) (= I31-m 5) (= I31-m 7) (= I31-m 8) (= I31-m 10) (= I31-m 12)) 31 (ite (or (= I31-m 4) (= I31-m 6) (= I31-m 9) (= I31-m 11)) 30 (ite (= (mod I31-y 4) 0) 29 28))))))
(assert (and (> I30-y 1900) (< I30-y 2100) (> I30-m 0) (<= I30-m 12) (> I30-d 0) (<= I30-d (ite (or (= I30-m 0) (= I30-m 1) (= I30-m 3) (= I30-m 5) (= I30-m 7) (= I30-m 8) (= I30-m 10) (= I30-m 12)) 31 (ite (or (= I30-m 4) (= I30-m 6) (= I30-m 9) (= I30-m 11)) 30 (ite (= (mod I30-y 4) 0) 29 28))))))
(assert (or (< I29-s-y I29-e-y) (and (= I29-s-y I29-e-y) (< I29-s-m I29-e-m)) (and (= I29-s-y I29-e-y) (= I29-s-m I29-e-m) (<= I29-s-d I29-e-d))))
(assert (and (>= I29-e-d 1) (<= I29-e-d (ite (or (= I29-e-m 0) (= I29-e-m 1) (= I29-e-m 3) (= I29-e-m 5) (= I29-e-m 7) (= I29-e-m 8) (= I29-e-m 10) (= I29-e-m 12)) 31 (ite (or (= I29-e-m 4) (= I29-e-m 6) (= I29-e-m 9) (= I29-e-m 11)) 30 (ite (= (mod I29-e-y 4) 0) 29 28))))))
(assert (and (>= I29-e-m 1) (<= I29-e-m 12)))
(assert (and (>= I29-e-y 1901) (<= I29-e-y 2099)))
(assert (and (>= I29-s-d 1) (<= I29-s-d (ite (or (= I29-s-m 0) (= I29-s-m 1) (= I29-s-m 3) (= I29-s-m 5) (= I29-s-m 7) (= I29-s-m 8) (= I29-s-m 10) (= I29-s-m 12)) 31 (ite (or (= I29-s-m 4) (= I29-s-m 6) (= I29-s-m 9) (= I29-s-m 11)) 30 (ite (= (mod I29-s-y 4) 0) 29 28))))))
(assert (and (>= I29-s-m 1) (<= I29-s-m 12)))
(assert (and (>= I29-s-y 1901) (<= I29-s-y 2099)))
(assert (and (> I46-y 1900) (< I46-y 2100) (> I46-m 0) (<= I46-m 12) (> I46-d 0) (<= I46-d (ite (or (= I46-m 0) (= I46-m 1) (= I46-m 3) (= I46-m 5) (= I46-m 7) (= I46-m 8) (= I46-m 10) (= I46-m 12)) 31 (ite (or (= I46-m 4) (= I46-m 6) (= I46-m 9) (= I46-m 11)) 30 (ite (= (mod I46-y 4) 0) 29 28))))))
(assert (and (> I45-y 1900) (< I45-y 2100) (> I45-m 0) (<= I45-m 12) (> I45-d 0) (<= I45-d (ite (or (= I45-m 0) (= I45-m 1) (= I45-m 3) (= I45-m 5) (= I45-m 7) (= I45-m 8) (= I45-m 10) (= I45-m 12)) 31 (ite (or (= I45-m 4) (= I45-m 6) (= I45-m 9) (= I45-m 11)) 30 (ite (= (mod I45-y 4) 0) 29 28))))))
(assert (or (< I44-s-y I44-e-y) (and (= I44-s-y I44-e-y) (< I44-s-m I44-e-m)) (and (= I44-s-y I44-e-y) (= I44-s-m I44-e-m) (<= I44-s-d I44-e-d))))
(assert (and (>= I44-e-d 1) (<= I44-e-d (ite (or (= I44-e-m 0) (= I44-e-m 1) (= I44-e-m 3) (= I44-e-m 5) (= I44-e-m 7) (= I44-e-m 8) (= I44-e-m 10) (= I44-e-m 12)) 31 (ite (or (= I44-e-m 4) (= I44-e-m 6) (= I44-e-m 9) (= I44-e-m 11)) 30 (ite (= (mod I44-e-y 4) 0) 29 28))))))
(assert (and (>= I44-e-m 1) (<= I44-e-m 12)))
(assert (and (>= I44-e-y 1901) (<= I44-e-y 2099)))
(assert (and (>= I44-s-d 1) (<= I44-s-d (ite (or (= I44-s-m 0) (= I44-s-m 1) (= I44-s-m 3) (= I44-s-m 5) (= I44-s-m 7) (= I44-s-m 8) (= I44-s-m 10) (= I44-s-m 12)) 31 (ite (or (= I44-s-m 4) (= I44-s-m 6) (= I44-s-m 9) (= I44-s-m 11)) 30 (ite (= (mod I44-s-y 4) 0) 29 28))))))
(assert (and (>= I44-s-m 1) (<= I44-s-m 12)))
(assert (and (>= I44-s-y 1901) (<= I44-s-y 2099)))
(assert (=> B11-F (and (> I11-N 1900) (< I11-N 2100))))
(assert (=> B11-F (and (> I11-N 1900) (< I11-N 2100))))
(assert (ite B11-F (and (>= I11-N 0) (<= I11-N 9999)) (= I11-N 0)))
(assert (and (>= I57-N 0) (<= I57-N 9999)))
(assert (or (= I2-N 0) (= I2-N 1)))
(assert (ite B8-F (or (= I8-N 1) (= I8-N 2) (= I8-N 3) (= I8-N 4) (= I8-N 5) (= I8-N 6) (= I8-N 7) (= I8-N 8) (= I8-N 9) (= I8-N 10) (= I8-N 11) (= I8-N 12)) (= I8-N 0)))
(assert (or (= I1-i 1) (= I1-i 2) (= I1-i 3) (= I1-i 4) (= I1-i 5) (= I1-i 6) (= I1-i 7) (= I1-i 8) (= I1-i 9) (= I1-i 10) (= I1-i 11) (= I1-i 12) (= I1-i 13) (= I1-i 14) (= I1-i 15)))
(assert (ite B3-F (or (= I3-i 1) (= I3-i 2) (= I3-i 3) (= I3-i 4) (= I3-i 5) (= I3-i 6) (= I3-i 7) (= I3-i 8) (= I3-i 9) (= I3-i 10) (= I3-i 11) (= I3-i 12) (= I3-i 13) (= I3-i 14) (= I3-i 15)) (= I3-i 0)))
(assert (not (and B97-F B96-F (distinct I96 0) (distinct I97 (div (* I96 15) 100)))))
(assert (not (and B94-F (or (< I94-y 2025) (> I94-y 2025)))))
(assert (not (and (or B117-F B116-F) (not (and B117-F B116-F)))))
(assert (not (distinct I92 (+ I22 I35 I51 I55 I62 I67 I72 I78 I83 I85 I89 613218519))))
(assert (not (distinct I93 (+ I18 I28 I36 I38 I48 I52 I56 I63 I68 I73 I79 I84 I86 (- 374680921)))))
(assert (not (and B7-F (or (< I7-y 2025) (> I7-y 2025)))))
(assert (not (and B13-F B12-F (or (> I13-y I12-y) (and (= I13-y I12-y) (> I13-m I12-m)) (and (= I13-y I12-y) (= I13-m I12-m) (> I13-d I12-d))))))
(assert (not (and B12-F (or (distinct I12-y (ite B7-F I7-y 0)) (distinct I12-m I8-N)))))
(assert (not (and B11-F B13-F (>= (ite (and (>= I11-N 1) (<= I11-N 9999)) (+ (- I13-y I11-N) (ite (or (< I11-N I13-y) (and (= I11-N I13-y) (< 5 I13-m)) (and (= I11-N I13-y) (= 5 I13-m) (< 1 I13-d)) (and (= I11-N I13-y) (= 5 I13-m) (= 1 I13-d))) (ite (or (< 5 I13-m) (and (= 5 I13-m) (<= 1 I13-d))) 0 (- 1)) (ite (or (> 5 I13-m) (and (= 5 I13-m) (>= 1 I13-d))) 0 1))) 0) 1))))
(assert (not (and B12-F (< I12-y I11-N))))
(assert (not (and (not (and B13-F B12-F B11-F)) (or B14-F B19-F B24-F))))
(assert (not (and (or B11-F B12-F B13-F) (not B14-F) (not B19-F) (not B24-F))))
(assert (not (and B11-F (> I11-N 2025))))
(assert (not (and (or B16-F B21-F B26-F) (distinct I21 0) (= I22 0))))
(assert (not (and B17-F B18-F (> (ite (>= (- I18 (- 3446542)) 0) (- I18 (- 3446542)) (- (- I18 (- 3446542)))) 100))))
(assert (not (and (or B15-F B16-F B17-F B18-F) (not (and B15-F B16-F B17-F B18-F)))))
(assert (not (and (or B17-F B22-F B27-F) (or (> (- 62664400) (+ (* I16 15) 100)) (> (* I22 100) (+ (* I21 15) 100))))))
(assert (not (and B22-F B23-F (> (ite (>= (- (- 1) (div (* I22 55) 10)) 0) (- (- 1) (div (* I22 55) 10)) (- (- (- 1) (div (* I22 55) 10)))) 100))))
(assert (not (and (or B20-F B21-F B22-F B23-F) (not (and B20-F B21-F B22-F B23-F)))))
(assert (not (and B27-F B28-F (> (ite (>= (- I28 5) 0) (- I28 5) (- (- I28 5))) 100))))
(assert (not (and (or B25-F B26-F B27-F B28-F) (not (and B25-F B26-F B27-F B28-F)))))
(assert (not (and B59-F (not B60-F))))
(assert (not (and B59-F (or (< I59-y I58-y) (and (= I59-y I58-y) (< I59-m I58-m)) (and (= I59-y I58-y) (= I59-m I58-m) (< I59-d I58-d)) (and (= I59-y I58-y) (= I59-m I58-m) (= I59-d I58-d))))))
(assert (not (and B59-F (< I59-y I57-N))))
(assert (not (and B59-F B60-F (or (< I59-y I60-y) (and (= I59-y I60-y) (< I59-m I60-m)) (and (= I59-y I60-y) (= I59-m I60-m) (< I59-d I60-d))))))
(assert (not (and B59-F (or (< I59-y (ite B7-F I7-y 0)) (and (= I59-y (ite B7-F I7-y 0)) (< I59-m I8-N))))))
(assert (not (and B60-F (< I60-y 2023))))
(assert (not (distinct I58-y I57-N)))
(assert (not (or (> I58-y (ite B7-F I7-y 0)) (and (= I58-y (ite B7-F I7-y 0)) (> I58-m I8-N)))))
(assert (not (> I57-N 2025)))
(assert (not (or (and (or (< I58-y 2022) (and (= I58-y 2022) (< I58-m 10)) (and (= I58-y 2022) (= I58-m 10) (< I58-d 1))) (< I57-N 2025)) (and (or (> I58-y 2022) (and (= I58-y 2022) (> I58-m 10)) (and (= I58-y 2022) (= I58-m 10) (> I58-d 1)) (and (= I58-y 2022) (= I58-m 10) (= I58-d 1))) (or (and (< I57-N 2025) (= I57-N 2024) (>= I8-N 5) (<= I8-N 12)) (and (< I57-N 2025) (distinct I57-N 2024)))))))
(assert (not (or (and (= I58-y (ite B7-F I7-y 0)) (< I58-m (- I8-N 4))) (and (distinct I58-y (ite B7-F I7-y 0)) (< I58-y (- (ite B7-F I7-y 0) 1))) (and (distinct I58-y (ite B7-F I7-y 0)) (= I58-y (- (ite B7-F I7-y 0) 1)) (> I58-m 8) (< I58-m (- (+ I8-N 12) 4))) (and (distinct I58-y (ite B7-F I7-y 0)) (= I58-y (- (ite B7-F I7-y 0) 1)) (<= I58-m 8)))))
(assert (not (or (and (distinct I61 0) (= I62 0)) (and (distinct I66 0) (= I67 0)) (and (distinct I71 0) (= I72 0)))))
(assert (not (> (ite (>= (- I63 (div (* I62 55) 10)) 0) (- I63 (div (* I62 55) 10)) (- (- I63 (div (* I62 55) 10)))) 100)))
(assert (not (or (> (* I62 100) (+ (* I61 15) 100)) (> (* I67 100) (+ (* I66 15) 100)) (> (* I72 100) (+ (* I71 15) 100)))))
(assert (not (and B67-F B68-F (> (ite (>= (- I68 (div (* I67 55) 10)) 0) (- I68 (div (* I67 55) 10)) (- (- I68 (div (* I67 55) 10)))) 100))))
(assert (not (and (or B65-F B66-F B67-F B68-F) (not (and B65-F B66-F B67-F B68-F)))))
(assert (not (and B72-F B73-F (> (ite (>= (- I73 (div (* I72 55) 10)) 0) (- I73 (div (* I72 55) 10)) (- (- I73 (div (* I72 55) 10)))) 100))))
(assert (not (and (or B70-F B71-F B72-F B73-F) (not (and B70-F B71-F B72-F B73-F)))))
(assert (not (or (and (distinct I77 0) (= I78 0)) (= I83 0))))
(assert (not (and B78-F B79-F (> (ite (>= (- I79 (div (* I78 55) 10)) 0) (- I79 (div (* I78 55) 10)) (- (- I79 (div (* I78 55) 10)))) 100))))
(assert (not (and (or B76-F B77-F B78-F B79-F) (not (and B76-F B77-F B78-F B79-F)))))
(assert (not (or (> (* I78 100) (+ (* I77 15) 100)) (> (* I83 100) 15000000000085) (> (* I85 100) 100))))
(assert (not (and B83-F B84-F (> (ite (>= (- I84 (div (* I83 55) 10)) 0) (- I84 (div (* I83 55) 10)) (- (- I84 (div (* I83 55) 10)))) 100))))
(assert (not (and (or B81-F B82-F B83-F B84-F) (not (and B81-F B82-F B83-F B84-F)))))
(assert (not (> (ite (>= (- I86 (div (* I85 55) 10)) 0) (- I86 (div (* I85 55) 10)) (- (- I86 (div (* I85 55) 10)))) 100)))
(assert (not (and B88-F (distinct I88 0) (= I89 0))))
(assert (not (and B89-F B90-F (> (ite (>= (- (- 374680919) (div (* I89 55) 10)) 0) (- (- 374680919) (div (* I89 55) 10)) (- (- (- 374680919) (div (* I89 55) 10)))) 100))))
(assert (not (and B89-F (> (* I89 100) (+ (* I88 15) 100)))))
(assert (not (or (> I74-y (ite B7-F I7-y 0)) (and (> I74-m I8-N) (= I74-y (ite B7-F I7-y 0))))))
(assert (not (or (> I31-y I30-y) (and (= I31-y I30-y) (> I31-m I30-m)) (and (= I31-y I30-y) (= I31-m I30-m) (> I31-d I30-d)))))
(assert (not (or (distinct I30-y (ite B7-F I7-y 0)) (distinct I30-m I8-N))))
(assert (not (< I30-y 2025)))
(assert (not (and (distinct I34 0) (= I35 0))))
(assert (not (and B35-F B36-F (> (ite (>= (- I36 (div (* I35 55) 10)) 0) (- I36 (div (* I35 55) 10)) (- (- I36 (div (* I35 55) 10)))) 100))))
(assert (not (and (or B33-F B34-F B35-F B36-F) (not (and B33-F B34-F B35-F B36-F)))))
(assert (not (or (> (* I35 100) (+ (* I34 15) 100)) (> (- 76100) (+ (* I37 15) 100)) (> 100 (+ (* I41 15) 100)))))
(assert (not (> (ite (>= (- I38 (- 4186)) 0) (- I38 (- 4186)) (- (- I38 (- 4186)))) 100)))
(assert (not (and (or B40-F B41-F B42-F B43-F) (not (and B40-F B41-F B42-F B43-F)))))
(assert (not (or (> I29-e-y I30-y) (and (= I29-e-y I30-y) (> I29-e-m I30-m)) (and (= I29-e-y I30-y) (= I29-e-m I30-m) (> I29-e-d I30-d)))))
(assert (not (or (< I29-s-y (- I29-e-y 1)) (and (= I29-s-y (- I29-e-y 1)) (< I29-s-m I29-e-m)) (and (= I29-s-y (- I29-e-y 1)) (= I29-s-m I29-e-m) (< I29-s-d (+ I29-e-d 1))))))
(assert (not (or (> I46-y I45-y) (and (= I46-y I45-y) (> I46-m I45-m)) (and (= I46-y I45-y) (= I46-m I45-m) (> I46-d I45-d)))))
(assert (not (or (distinct I45-y (ite B7-F I7-y 0)) (distinct I45-m I8-N))))
(assert (not (< I45-y 2025)))
(assert (not (or (= I51 0) (= I55 0))))
(assert (not (> (ite (>= (- I48 3376152571) 0) (- I48 3376152571) (- (- I48 3376152571))) 100)))
(assert (not (or (> 61384592200 (+ (* I47 15) 100)) (> (* I51 100) (- 14999999999885)) (> (* I55 100) (- 14999999999885)))))
(assert (not (and B51-F B52-F (> (ite (>= (- I52 (div (* I51 55) 10)) 0) (- I52 (div (* I51 55) 10)) (- (- I52 (div (* I51 55) 10)))) 100))))
(assert (not (and (or B49-F B50-F B51-F B52-F) (not (and B49-F B50-F B51-F B52-F)))))
(assert (not (and B55-F B56-F (> (ite (>= (- I56 (div (* I55 55) 10)) 0) (- I56 (div (* I55 55) 10)) (- (- I56 (div (* I55 55) 10)))) 100))))
(assert (not (and (or B53-F B54-F B55-F B56-F) (not (and B53-F B54-F B55-F B56-F)))))
(assert (not (or (> I44-e-y I45-y) (and (= I44-e-y I45-y) (> I44-e-m I45-m)) (and (= I44-e-y I45-y) (= I44-e-m I45-m) (> I44-e-d I45-d)))))
(assert (not (or (< I44-s-y (- I44-e-y 1)) (and (= I44-s-y (- I44-e-y 1)) (< I44-s-m I44-e-m)) (and (= I44-s-y (- I44-e-y 1)) (= I44-s-m I44-e-m) (< I44-s-d (+ I44-e-d 1))))))
(assert (not B94-F))
(assert (and B7-F B8-F))
(assert (not (and B7-F B8-F (or (< 2026 I7-y) (and (= 2026 I7-y) (<= 6 I8-N))))))
(assert (not (and B7-F B8-F (or (< 2027 I7-y) (and (= 2027 I7-y) (<= 6 I8-N))))))
(assert (not (and B3-F (= I2-N 0))))
(assert (not (and B3-F (= I3-i I1-i))))
(assert (not (distinct I114 (+ I101 I100 I98 I99 I104 I105 I106 I113 I107 I110 I111 I108 I109 I112 99999999963210))))
(assert (not (distinct I114 (* I92 100))))
(push 1)
(assert B42-F)
(set-info :status sat)
(check-sat)
(push 1)
(assert B17-F)
(set-info :status sat)
(check-sat)
(push 1)
(assert B50-F)
(set-info :status sat)
(check-sat)
(push 1)
(assert B18-F)
(set-info :status sat)
(check-sat)
(push 1)
(assert B26-F)
(set-info :status sat)
(check-sat)
(push 1)
(assert B82-F)
(set-info :status sat)
(check-sat)
(push 1)
(assert B54-F)
(set-info :status sat)
(check-sat)
(push 1)
(assert B23-F)
(set-info :status sat)
(check-sat)
(push 1)
(assert B11-F)
(set-info :status sat)
(check-sat)
(push 1)
(assert B7-F)
(set-info :status sat)
(check-sat)
(push 1)
(assert B94-F)
(set-info :status unsat)
(check-sat)
(pop 1)
(push 1)
(assert B102-F)
(set-info :status sat)
(check-sat)
(push 1)
(assert B117-F)
(set-info :status sat)
(check-sat)
(push 1)
(assert B6-F)
(set-info :status sat)
(check-sat)
(push 1)
(assert B119-F)
(set-info :status sat)
(check-sat)
(push 1)
(assert B103-F)
(set-info :status sat)
(check-sat)
(push 1)
(assert B51-F)
(set-info :status sat)
(check-sat)
(push 1)
(assert B83-F)
(set-info :status sat)
(check-sat)
(push 1)
(assert B68-F)
(set-info :status sat)
(check-sat)
(push 1)
(assert B4-F)
(set-info :status sat)
(check-sat)
(push 1)
(assert B84-F)
(set-info :status sat)
(check-sat)
(push 1)
(assert B108-F)
(set-info :status sat)
(check-sat)
(push 1)
(assert B109-F)
(set-info :status sat)
(check-sat)
(push 1)
(assert B98-F)
(set-info :status sat)
(check-sat)
(push 1)
(assert B111-F)
(set-info :status sat)
(check-sat)
(push 1)
(assert B99-F)
(set-info :status sat)
(check-sat)
(push 1)
(assert B110-F)
(set-info :status sat)
(check-sat)
(push 1)
(assert B118-F)
(set-info :status sat)
(check-sat)
(push 1)
(assert B8-F)
(set-info :status sat)
(check-sat)
(push 1)
(assert B112-F)
(set-info :status sat)
(check-sat)
(push 1)
(assert B60-F)
(set-info :status sat)
(check-sat)
(push 1)
(assert B97-F)
(set-info :status unsat)
(check-sat)
(pop 1)
(push 1)
(assert B120-F)
(set-info :status sat)
(check-sat)
(push 1)
(assert B5-F)
(set-info :status sat)
(check-sat)
(push 1)
(assert B12-F)
(set-info :status sat)
(check-sat)
(push 1)
(assert B3-F)
(set-info :status sat)
(check-sat)
(push 1)
(assert B9-F)
(set-info :status sat)
(check-sat)
(push 1)
(assert B13-F)
(set-info :status sat)
(check-sat)
(push 1)
(assert B78-F)
(set-info :status sat)
(check-sat)
(push 1)
(assert B106-F)
(set-info :status sat)
(check-sat)
(push 1)
(assert B20-F)
(set-info :status sat)
(check-sat)
(push 1)
(assert B53-F)
(set-info :status sat)
(check-sat)
(push 1)
(assert B33-F)
(set-info :status sat)
(check-sat)
(push 1)
(assert B76-F)
(set-info :status sat)
(check-sat)
(push 1)
(assert B40-F)
(set-info :status sat)
(check-sat)
(push 1)
(assert B66-F)
(set-info :status sat)
(check-sat)
(push 1)
(assert B113-F)
(set-info :status sat)
(check-sat)
(push 1)
(assert B25-F)
(set-info :status sat)
(check-sat)
(push 1)
(assert B49-F)
(set-info :status sat)
(check-sat)
(push 1)
(assert B105-F)
(set-info :status sat)
(check-sat)
(push 1)
(assert B15-F)
(set-info :status sat)
(check-sat)
(push 1)
(assert B59-F)
(set-info :status sat)
(check-sat)
(push 1)
(assert B65-F)
(set-info :status sat)
(check-sat)
(push 1)
(assert B70-F)
(set-info :status sat)
(check-sat)
(push 1)
(assert B81-F)
(set-info :status sat)
(check-sat)
(push 1)
(assert B116-F)
(set-info :status sat)
(check-sat)
(push 1)
(assert B27-F)
(set-info :status sat)
(check-sat)
(push 1)
(assert B90-F)
(set-info :status sat)
(check-sat)
(push 1)
(assert B89-F)
(set-info :status sat)
(check-sat)
(push 1)
(assert B36-F)
(set-info :status sat)
(check-sat)
(push 1)
(assert B34-F)
(set-info :status sat)
(check-sat)
(push 1)
(assert B73-F)
(set-info :status sat)
(check-sat)
(push 1)
(assert B96-F)
(set-info :status unsat)
(check-sat)
(pop 1)
(push 1)
(assert B35-F)
(set-info :status sat)
(check-sat)
(push 1)
(assert B55-F)
(set-info :status sat)
(check-sat)
(push 1)
(assert B56-F)
(set-info :status sat)
(check-sat)
(push 1)
(assert B101-F)
(set-info :status sat)
(check-sat)
(push 1)
(assert B100-F)
(set-info :status sat)
(check-sat)
(push 1)
(assert B21-F)
(set-info :status sat)
(check-sat)
(push 1)
(assert B71-F)
(set-info :status sat)
(check-sat)
(push 1)
(assert B107-F)
(set-info :status sat)
(check-sat)
(push 1)
(assert B104-F)
(set-info :status sat)
(check-sat)
(push 1)
(assert B79-F)
(set-info :status sat)
(check-sat)
(push 1)
(assert B77-F)
(set-info :status sat)
(check-sat)
(push 1)
(assert B41-F)
(set-info :status sat)
(check-sat)
(push 1)
(assert B28-F)
(set-info :status sat)
(check-sat)
(push 1)
(assert B52-F)
(set-info :status sat)
(check-sat)
(push 1)
(assert B16-F)
(set-info :status sat)
(check-sat)
(push 1)
(assert B72-F)
(set-info :status sat)
(check-sat)
(push 1)
(assert B67-F)
(set-info :status sat)
(check-sat)
(push 1)
(assert B22-F)
(set-info :status sat)
(check-sat)
(push 1)
(assert B43-F)
(set-info :status sat)
(check-sat)
(push 1)
(assert B88-F)
(set-info :status sat)
(check-sat)
(exit)

